
























































































31 55 61 
68 42 52 
48 54 4 
57 18 34 
11 12 37 
7 5 35 
15 73 36 
50 69 43 
74 25 14 
9 65 22 28 
13 64 8 
27 59 33 70 
20 29 6 
63 49 10 23 
41 72 
26 45 1 

17 30 16 
67 75 60 
76 44 71 
39 46 3 
51 2 24 
58 66 0 
53 56 19 40 
21 32 38 
47 62 
